language ESSENCE' 1.0

letting C_FunctionND be
        [[0, 0, 0, 0, 0, 0, 0, 0, 0, 0, 0, 0, 0, 0, 0, 0, 0, 0, 0, 0, 0; int(0..20)],
         [1, 0, 0, 0, 0, 0, 0, 0, 0, 0, 0, 0, 0, 0, 0, 0, 0, 0, 0, 0, 0; int(0..20)],
         [1, 0, 0, 0, 0, 0, 0, 0, 0, 0, 0, 0, 0, 0, 0, 0, 0, 0, 0, 0, 0; int(0..20)],
         [1, 0, 0, 0, 0, 0, 0, 0, 0, 0, 0, 0, 0, 0, 0, 0, 0, 0, 0, 0, 0; int(0..20)],
         [1, 0, 0, 0, 0, 0, 0, 0, 0, 0, 0, 0, 0, 0, 0, 0, 0, 0, 0, 0, 0; int(0..20)],
         [1, 0, 0, 0, 0, 0, 0, 0, 0, 0, 0, 0, 0, 0, 0, 0, 0, 0, 0, 0, 0; int(0..20)],
         [1, 0, 0, 0, 0, 0, 0, 0, 0, 0, 0, 0, 0, 0, 0, 0, 0, 0, 0, 0, 0; int(0..20)],
         [1, 0, 0, 0, 0, 0, 0, 0, 0, 0, 0, 0, 0, 0, 0, 0, 0, 0, 0, 0, 0; int(0..20)],
         [1, 0, 0, 0, 0, 0, 0, 0, 0, 0, 0, 0, 0, 0, 0, 0, 0, 0, 0, 0, 0; int(0..20)],
         [0, 1, 1, 1, 0, 0, 0, 1, 0, 0, 0, 0, 0, 0, 0, 0, 0, 0, 0, 0, 0; int(0..20)],
         [0, 1, 0, 0, 1, 1, 0, 0, 0, 0, 0, 0, 0, 0, 0, 0, 0, 0, 0, 0, 0; int(0..20)],
         [0, 1, 0, 0, 0, 0, 1, 0, 0, 0, 0, 0, 0, 0, 0, 0, 0, 0, 0, 0, 0; int(0..20)],
         [0, 1, 0, 0, 0, 0, 0, 0, 1, 0, 0, 0, 0, 0, 0, 0, 0, 0, 0, 0, 0; int(0..20)],
         [0, 0, 1, 0, 1, 0, 0, 0, 1, 0, 0, 0, 0, 0, 0, 0, 0, 0, 0, 0, 0; int(0..20)],
         [0, 0, 1, 0, 0, 1, 1, 0, 0, 0, 0, 0, 0, 0, 0, 0, 0, 0, 0, 0, 0; int(0..20)],
         [0, 0, 0, 1, 1, 0, 0, 0, 0, 0, 0, 0, 0, 0, 0, 0, 0, 0, 0, 0, 0; int(0..20)],
         [0, 0, 0, 1, 0, 1, 0, 0, 0, 0, 0, 0, 0, 0, 0, 0, 0, 0, 0, 0, 0; int(0..20)],
         [0, 0, 0, 1, 0, 0, 1, 0, 1, 0, 0, 0, 0, 0, 0, 0, 0, 0, 0, 0, 0; int(0..20)],
         [0, 0, 0, 0, 1, 0, 1, 1, 0, 0, 0, 0, 0, 0, 0, 0, 0, 0, 0, 0, 0; int(0..20)],
         [0, 0, 0, 0, 0, 1, 0, 1, 1, 0, 0, 0, 0, 0, 0, 0, 0, 0, 0, 0, 0; int(0..20)],
         [0, 0, 0, 0, 0, 0, 0, 0, 0, 1, 1, 1, 1, 1, 1, 1, 1, 1, 1, 1, 0; int(0..20)];
             int(0..20)]
$ Visualisation for C_FunctionND
$ 0 0 0 0 0 0 0 0 0 0 0 0 0 0 0 0 0 0 0 0 0
$ 1 0 0 0 0 0 0 0 0 0 0 0 0 0 0 0 0 0 0 0 0
$ 1 0 0 0 0 0 0 0 0 0 0 0 0 0 0 0 0 0 0 0 0
$ 1 0 0 0 0 0 0 0 0 0 0 0 0 0 0 0 0 0 0 0 0
$ 1 0 0 0 0 0 0 0 0 0 0 0 0 0 0 0 0 0 0 0 0
$ 1 0 0 0 0 0 0 0 0 0 0 0 0 0 0 0 0 0 0 0 0
$ 1 0 0 0 0 0 0 0 0 0 0 0 0 0 0 0 0 0 0 0 0
$ 1 0 0 0 0 0 0 0 0 0 0 0 0 0 0 0 0 0 0 0 0
$ 1 0 0 0 0 0 0 0 0 0 0 0 0 0 0 0 0 0 0 0 0
$ 0 1 1 1 0 0 0 1 0 0 0 0 0 0 0 0 0 0 0 0 0
$ 0 1 0 0 1 1 0 0 0 0 0 0 0 0 0 0 0 0 0 0 0
$ 0 1 0 0 0 0 1 0 0 0 0 0 0 0 0 0 0 0 0 0 0
$ 0 1 0 0 0 0 0 0 1 0 0 0 0 0 0 0 0 0 0 0 0
$ 0 0 1 0 1 0 0 0 1 0 0 0 0 0 0 0 0 0 0 0 0
$ 0 0 1 0 0 1 1 0 0 0 0 0 0 0 0 0 0 0 0 0 0
$ 0 0 0 1 1 0 0 0 0 0 0 0 0 0 0 0 0 0 0 0 0
$ 0 0 0 1 0 1 0 0 0 0 0 0 0 0 0 0 0 0 0 0 0
$ 0 0 0 1 0 0 1 0 1 0 0 0 0 0 0 0 0 0 0 0 0
$ 0 0 0 0 1 0 1 1 0 0 0 0 0 0 0 0 0 0 0 0 0
$ 0 0 0 0 0 1 0 1 1 0 0 0 0 0 0 0 0 0 0 0 0
$ 0 0 0 0 0 0 0 0 0 1 1 1 1 1 1 1 1 1 1 1 0

letting J_FunctionND be
        [[0, 1, 2, 3, 4, 5, 6, 7, 8, 9, 10, 11, 12, 13, 14, 15, 16, 17, 18, 19, 20; int(0..20)],
         [1, 1, 9, 9, 10, 10, 11, 9, 12, 9, 10, 11, 12, 20, 20, 20, 20, 20, 20, 20, 20; int(0..20)],
         [2, 9, 2, 9, 13, 14, 14, 9, 13, 9, 20, 20, 20, 13, 14, 20, 20, 20, 20, 20, 20; int(0..20)],
         [3, 9, 9, 3, 15, 16, 17, 9, 17, 9, 20, 20, 20, 20, 20, 15, 16, 17, 20, 20, 20; int(0..20)],
         [4, 10, 13, 15, 4, 10, 18, 18, 13, 20, 10, 20, 20, 13, 20, 15, 20, 20, 18, 20, 20; int(0..20)],
         [5, 10, 14, 16, 10, 5, 14, 19, 19, 20, 10, 20, 20, 20, 14, 20, 16, 20, 20, 19, 20; int(0..20)],
         [6, 11, 14, 17, 18, 14, 6, 18, 17, 20, 20, 11, 20, 20, 14, 20, 20, 17, 18, 20, 20; int(0..20)],
         [7, 9, 9, 9, 18, 19, 18, 7, 19, 9, 20, 20, 20, 20, 20, 20, 20, 20, 18, 19, 20; int(0..20)],
         [8, 12, 13, 17, 13, 19, 17, 19, 8, 20, 20, 20, 12, 13, 20, 20, 20, 17, 20, 19, 20; int(0..20)],
         [9, 9, 9, 9, 20, 20, 20, 9, 20, 9, 20, 20, 20, 20, 20, 20, 20, 20, 20, 20, 20; int(0..20)],
         [10, 10, 20, 20, 10, 10, 20, 20, 20, 20, 10, 20, 20, 20, 20, 20, 20, 20, 20, 20, 20; int(0..20)],
         [11, 11, 20, 20, 20, 20, 11, 20, 20, 20, 20, 11, 20, 20, 20, 20, 20, 20, 20, 20, 20; int(0..20)],
         [12, 12, 20, 20, 20, 20, 20, 20, 12, 20, 20, 20, 12, 20, 20, 20, 20, 20, 20, 20, 20; int(0..20)],
         [13, 20, 13, 20, 13, 20, 20, 20, 13, 20, 20, 20, 20, 13, 20, 20, 20, 20, 20, 20, 20; int(0..20)],
         [14, 20, 14, 20, 20, 14, 14, 20, 20, 20, 20, 20, 20, 20, 14, 20, 20, 20, 20, 20, 20; int(0..20)],
         [15, 20, 20, 15, 15, 20, 20, 20, 20, 20, 20, 20, 20, 20, 20, 15, 20, 20, 20, 20, 20; int(0..20)],
         [16, 20, 20, 16, 20, 16, 20, 20, 20, 20, 20, 20, 20, 20, 20, 20, 16, 20, 20, 20, 20; int(0..20)],
         [17, 20, 20, 17, 20, 20, 17, 20, 17, 20, 20, 20, 20, 20, 20, 20, 20, 17, 20, 20, 20; int(0..20)],
         [18, 20, 20, 20, 18, 20, 18, 18, 20, 20, 20, 20, 20, 20, 20, 20, 20, 20, 18, 20, 20; int(0..20)],
         [19, 20, 20, 20, 20, 19, 20, 19, 19, 20, 20, 20, 20, 20, 20, 20, 20, 20, 20, 19, 20; int(0..20)],
         [20, 20, 20, 20, 20, 20, 20, 20, 20, 20, 20, 20, 20, 20, 20, 20, 20, 20, 20, 20, 20; int(0..20)];
             int(0..20)]
$ Visualisation for J_FunctionND
$  0  1  2  3  4  5  6  7  8  9 10 11 12 13 14 15 16 17 18 19 20
$  1  1  9  9 10 10 11  9 12  9 10 11 12 20 20 20 20 20 20 20 20
$  2  9  2  9 13 14 14  9 13  9 20 20 20 13 14 20 20 20 20 20 20
$  3  9  9  3 15 16 17  9 17  9 20 20 20 20 20 15 16 17 20 20 20
$  4 10 13 15  4 10 18 18 13 20 10 20 20 13 20 15 20 20 18 20 20
$  5 10 14 16 10  5 14 19 19 20 10 20 20 20 14 20 16 20 20 19 20
$  6 11 14 17 18 14  6 18 17 20 20 11 20 20 14 20 20 17 18 20 20
$  7  9  9  9 18 19 18  7 19  9 20 20 20 20 20 20 20 20 18 19 20
$  8 12 13 17 13 19 17 19  8 20 20 20 12 13 20 20 20 17 20 19 20
$  9  9  9  9 20 20 20  9 20  9 20 20 20 20 20 20 20 20 20 20 20
$ 10 10 20 20 10 10 20 20 20 20 10 20 20 20 20 20 20 20 20 20 20
$ 11 11 20 20 20 20 11 20 20 20 20 11 20 20 20 20 20 20 20 20 20
$ 12 12 20 20 20 20 20 20 12 20 20 20 12 20 20 20 20 20 20 20 20
$ 13 20 13 20 13 20 20 20 13 20 20 20 20 13 20 20 20 20 20 20 20
$ 14 20 14 20 20 14 14 20 20 20 20 20 20 20 14 20 20 20 20 20 20
$ 15 20 20 15 15 20 20 20 20 20 20 20 20 20 20 15 20 20 20 20 20
$ 16 20 20 16 20 16 20 20 20 20 20 20 20 20 20 20 16 20 20 20 20
$ 17 20 20 17 20 20 17 20 17 20 20 20 20 20 20 20 20 17 20 20 20
$ 18 20 20 20 18 20 18 18 20 20 20 20 20 20 20 20 20 20 18 20 20
$ 19 20 20 20 20 19 20 19 19 20 20 20 20 20 20 20 20 20 20 19 20
$ 20 20 20 20 20 20 20 20 20 20 20 20 20 20 20 20 20 20 20 20 20

letting M_FunctionND be
        [[0, 0, 0, 0, 0, 0, 0, 0, 0, 0, 0, 0, 0, 0, 0, 0, 0, 0, 0, 0, 0; int(0..20)],
         [0, 1, 0, 0, 0, 0, 0, 0, 0, 1, 1, 1, 1, 0, 0, 0, 0, 0, 0, 0, 1; int(0..20)],
         [0, 0, 2, 0, 0, 0, 0, 0, 0, 2, 0, 0, 0, 2, 2, 0, 0, 0, 0, 0, 2; int(0..20)],
         [0, 0, 0, 3, 0, 0, 0, 0, 0, 3, 0, 0, 0, 0, 0, 3, 3, 3, 0, 0, 3; int(0..20)],
         [0, 0, 0, 0, 4, 0, 0, 0, 0, 0, 4, 0, 0, 4, 0, 4, 0, 0, 4, 0, 4; int(0..20)],
         [0, 0, 0, 0, 0, 5, 0, 0, 0, 0, 5, 0, 0, 0, 5, 0, 5, 0, 0, 5, 5; int(0..20)],
         [0, 0, 0, 0, 0, 0, 6, 0, 0, 0, 0, 6, 0, 0, 6, 0, 0, 6, 6, 0, 6; int(0..20)],
         [0, 0, 0, 0, 0, 0, 0, 7, 0, 7, 0, 0, 0, 0, 0, 0, 0, 0, 7, 7, 7; int(0..20)],
         [0, 0, 0, 0, 0, 0, 0, 0, 8, 0, 0, 0, 8, 8, 0, 0, 0, 8, 0, 8, 8; int(0..20)],
         [0, 1, 2, 3, 0, 0, 0, 7, 0, 9, 1, 1, 1, 2, 2, 3, 3, 3, 7, 7, 9; int(0..20)],
         [0, 1, 0, 0, 4, 5, 0, 0, 0, 1, 10, 1, 1, 4, 5, 4, 5, 0, 4, 5, 10; int(0..20)],
         [0, 1, 0, 0, 0, 0, 6, 0, 0, 1, 1, 11, 1, 0, 6, 0, 0, 6, 6, 0, 11; int(0..20)],
         [0, 1, 0, 0, 0, 0, 0, 0, 8, 1, 1, 1, 12, 8, 0, 0, 0, 8, 0, 8, 12; int(0..20)],
         [0, 0, 2, 0, 4, 0, 0, 0, 8, 2, 4, 0, 8, 13, 2, 4, 0, 8, 4, 8, 13; int(0..20)],
         [0, 0, 2, 0, 0, 5, 6, 0, 0, 2, 5, 6, 0, 2, 14, 0, 5, 6, 6, 5, 14; int(0..20)],
         [0, 0, 0, 3, 4, 0, 0, 0, 0, 3, 4, 0, 0, 4, 0, 15, 3, 3, 4, 0, 15; int(0..20)],
         [0, 0, 0, 3, 0, 5, 0, 0, 0, 3, 5, 0, 0, 0, 5, 3, 16, 3, 0, 5, 16; int(0..20)],
         [0, 0, 0, 3, 0, 0, 6, 0, 8, 3, 0, 6, 8, 8, 6, 3, 3, 17, 6, 8, 17; int(0..20)],
         [0, 0, 0, 0, 4, 0, 6, 7, 0, 7, 4, 6, 0, 4, 6, 4, 0, 6, 18, 7, 18; int(0..20)],
         [0, 0, 0, 0, 0, 5, 0, 7, 8, 7, 5, 0, 8, 8, 5, 0, 5, 8, 7, 19, 19; int(0..20)],
         [0, 1, 2, 3, 4, 5, 6, 7, 8, 9, 10, 11, 12, 13, 14, 15, 16, 17, 18, 19, 20; int(0..20)];
             int(0..20)]
$ Visualisation for M_FunctionND
$  0  0  0  0  0  0  0  0  0  0  0  0  0  0  0  0  0  0  0  0  0
$  0  1  0  0  0  0  0  0  0  1  1  1  1  0  0  0  0  0  0  0  1
$  0  0  2  0  0  0  0  0  0  2  0  0  0  2  2  0  0  0  0  0  2
$  0  0  0  3  0  0  0  0  0  3  0  0  0  0  0  3  3  3  0  0  3
$  0  0  0  0  4  0  0  0  0  0  4  0  0  4  0  4  0  0  4  0  4
$  0  0  0  0  0  5  0  0  0  0  5  0  0  0  5  0  5  0  0  5  5
$  0  0  0  0  0  0  6  0  0  0  0  6  0  0  6  0  0  6  6  0  6
$  0  0  0  0  0  0  0  7  0  7  0  0  0  0  0  0  0  0  7  7  7
$  0  0  0  0  0  0  0  0  8  0  0  0  8  8  0  0  0  8  0  8  8
$  0  1  2  3  0  0  0  7  0  9  1  1  1  2  2  3  3  3  7  7  9
$  0  1  0  0  4  5  0  0  0  1 10  1  1  4  5  4  5  0  4  5 10
$  0  1  0  0  0  0  6  0  0  1  1 11  1  0  6  0  0  6  6  0 11
$  0  1  0  0  0  0  0  0  8  1  1  1 12  8  0  0  0  8  0  8 12
$  0  0  2  0  4  0  0  0  8  2  4  0  8 13  2  4  0  8  4  8 13
$  0  0  2  0  0  5  6  0  0  2  5  6  0  2 14  0  5  6  6  5 14
$  0  0  0  3  4  0  0  0  0  3  4  0  0  4  0 15  3  3  4  0 15
$  0  0  0  3  0  5  0  0  0  3  5  0  0  0  5  3 16  3  0  5 16
$  0  0  0  3  0  0  6  0  8  3  0  6  8  8  6  3  3 17  6  8 17
$  0  0  0  0  4  0  6  7  0  7  4  6  0  4  6  4  0  6 18  7 18
$  0  0  0  0  0  5  0  7  8  7  5  0  8  8  5  0  5  8  7 19 19
$  0  1  2  3  4  5  6  7  8  9 10 11 12 13 14 15 16 17 18 19 20

letting R_Function1D be [0, 1, 1, 1, 1, 1, 1, 1, 1, 2, 2, 2, 2, 2, 2, 2, 2, 2, 2, 2, 3; int(0..20)]
